results_rootrelaxation/bin012_070_043.srr.sol
solution status: optimal solution found
objective value:                      8.7831715210356
_var695_                           0.0647249190938516 	(obj:1)
_var698_                            0.271844660194175 	(obj:0)
_var717_                            0.300970873786408 	(obj:0)
_var719_                           0.0517799352750804 	(obj:1)
_var723_                           0.0744336569579287 	(obj:1)
_var729_                           0.0485436893203885 	(obj:1)
_var733_                            0.288025889967637 	(obj:1)
_var738_                            0.197411003236247 	(obj:0)
_var740_                            0.197411003236246 	(obj:1)
_var748_                            0.407766990291263 	(obj:1)
_var760_                           0.0517799352750804 	(obj:0)
_var765_                            0.226537216828479 	(obj:0)
_var771_                            0.375404530744336 	(obj:0)
_var787_                           0.0420711974110022 	(obj:1)
_var790_                           0.0679611650485421 	(obj:2)
_var793_                            0.158576051779935 	(obj:0)
_var794_                             0.15210355987055 	(obj:1)
_var795_                            0.304207119741102 	(obj:1)
_var797_                            0.346278317152103 	(obj:0)
_var798_                            0.229773462783172 	(obj:0)
_var799_                            0.207119741100323 	(obj:1)
_var804_                            0.216828478964402 	(obj:1)
_var817_                            0.035598705501617 	(obj:1)
_var820_                            0.297734627831714 	(obj:0)
_var821_                            0.220064724919095 	(obj:1)
_var825_                           0.0129449838187701 	(obj:2)
_var830_                           0.0453074433656956 	(obj:1)
_var832_                            0.566343042071197 	(obj:0)
_var834_                           0.0517799352750804 	(obj:1)
_var836_                            0.271844660194175 	(obj:1)
_var839_                            0.200647249190939 	(obj:1)
_var840_                            0.135922330097088 	(obj:0)
_var842_                           0.0647249190938505 	(obj:1)
_var846_                             0.11326860841424 	(obj:1)
_var848_                           0.0614886731391592 	(obj:1)
_var852_                            0.158576051779935 	(obj:1)
_var853_                            0.223300970873787 	(obj:1)
_var858_                           0.0453074433656949 	(obj:1)
_var863_                            0.375404530744337 	(obj:1)
_var864_                            0.132686084142395 	(obj:2)
_var866_                            0.187702265372168 	(obj:1)
_var869_                            0.022653721682849 	(obj:0)
_var870_                           0.0129449838187707 	(obj:2)
_var872_                             0.05177993527508 	(obj:1)
_var873_                            0.572815533980583 	(obj:1)
_var875_                            0.097087378640776 	(obj:1)
_var876_                            0.226537216828478 	(obj:1)
_var878_                            0.080906148867313 	(obj:0)
_var886_                            0.459546925566343 	(obj:1)
_var889_                            0.381877022653722 	(obj:2)
_var892_                            0.381877022653722 	(obj:1)
_var894_                            0.145631067961165 	(obj:2)
_var895_                            0.135922330097089 	(obj:1)
_var896_                             0.18770226537217 	(obj:1)
_var897_                           0.0647249190938505 	(obj:2)
_var900_                            0.126213592233009 	(obj:1)
_var905_                            0.197411003236247 	(obj:2)
_var906_                            0.100323624595469 	(obj:0)
_var911_                           0.0776699029126208 	(obj:1)
_var913_                           0.0129449838187704 	(obj:1)
_var914_                            0.129449838187703 	(obj:2)
_var915_                           0.0517799352750806 	(obj:1)
