results_rootrelaxation/bin012_070_043.srr.log
SCIP version 8.0.3.5 [precision: 8 byte] [memory: block] [mode: optimized] [LP solver: Soplex 6.0.1.3] [GitHash: 438792519e]
Copyright (c) 2002-2023 Zuse Institute Berlin (ZIB)

External libraries: 
  Readline 8.1         GNU library for command line editing (gnu.org/s/readline)
  Soplex 6.0.1.3       Linear Programming Solver developed at Zuse Institute Berlin (soplex.zib.de) [GitHash: 713be0fe]
  CppAD 20180000.0     Algorithmic Differentiation of C++ algorithms developed by B. Bell (github.com/coin-or/CppAD)
  ZLIB 1.2.11          General purpose compression library by J. Gailly and M. Adler (zlib.net)
  bliss 0.77           Computing Graph Automorphism Groups by T. Junttila and P. Kaski (www.tcs.hut.fi/Software/bliss/)

user parameter file <scip.set> not found - using default parameters

srr/relaxation = TRUE

read problem <instances/bin012_070_043.srr>
============

Original problem: 
original problem has 0 variables (0 bin, 0 int, 0 impl, 0 cont) and 77 constraints

presolving:
presolving (1 rounds: 1 fast, 1 medium, 1 exhaustive):
 0 deleted vars, 0 deleted constraints, 0 added constraints, 0 tightened bounds, 0 added holes, 0 changed sides, 0 changed coefficients
 0 implications, 0 cliques
presolved problem has 0 variables (0 bin, 0 int, 0 impl, 0 cont) and 77 constraints
     77 constraints of type <linear>
Presolving Time: 0.00

 time | node  | left  |LP iter|LP it/n|mem/heur|mdpt |vars |cons |rows |cuts |sepa|confs|strbr|  dualbound   | primalbound  |  gap   | compl. 
  0.0s|     1 |     0 |     1 |     - |   710k |   0 |   1 |  77 |  77 |   0 |  0 |   0 |   0 |      --      |      --      |    Inf | unknown
r 0.0s|     1 |     0 |   616 |     - |simplero|   0 | 665 |  77 |  77 |   0 |  0 |   0 |   0 |      --      | 2.687329e+01 |    Inf | unknown
r 0.0s|     1 |     0 |   627 |     - |simplero|   0 | 676 |  77 |  77 |   0 |  0 |   0 |   0 |      --      | 2.658981e+01 |    Inf | unknown
r 0.0s|     1 |     0 |   676 |     - |simplero|   0 | 687 |  77 |  77 |   0 |  0 |   0 |   0 |      --      | 2.491413e+01 |    Inf | unknown
r 0.0s|     1 |     0 |   732 |     - |simplero|   0 | 698 |  77 |  77 |   0 |  0 |   0 |   0 |      --      | 2.225188e+01 |    Inf | unknown
r 0.1s|     1 |     0 |   792 |     - |simplero|   0 | 709 |  77 |  77 |   0 |  0 |   0 |   0 |      --      | 2.096237e+01 |    Inf | unknown
r 0.1s|     1 |     0 |   840 |     - |simplero|   0 | 720 |  77 |  77 |   0 |  0 |   0 |   0 |      --      | 1.908533e+01 |    Inf | unknown
r 0.1s|     1 |     0 |   925 |     - |simplero|   0 | 731 |  77 |  77 |   0 |  0 |   0 |   0 |      --      | 1.654639e+01 |    Inf | unknown
r 0.1s|     1 |     0 |   967 |     - |simplero|   0 | 742 |  77 |  77 |   0 |  0 |   0 |   0 |      --      | 1.500600e+01 |    Inf | unknown
r 0.1s|     1 |     0 |   999 |     - |simplero|   0 | 742 |  77 |  77 |   0 |  0 |   0 |   0 |      --      | 1.458149e+01 |    Inf | unknown
r 0.1s|     1 |     0 |  1010 |     - |simplero|   0 | 742 |  77 |  77 |   0 |  0 |   0 |   0 |      --      | 1.456511e+01 |    Inf | unknown
r 0.1s|     1 |     0 |  1071 |     - |simplero|   0 | 753 |  77 |  77 |   0 |  0 |   0 |   0 |      --      | 1.317970e+01 |    Inf | unknown
r 0.1s|     1 |     0 |  1089 |     - |simplero|   0 | 753 |  77 |  77 |   0 |  0 |   0 |   0 |      --      | 1.311954e+01 |    Inf | unknown
r 0.1s|     1 |     0 |  1096 |     - |simplero|   0 | 753 |  77 |  77 |   0 |  0 |   0 |   0 |      --      | 1.311588e+01 |    Inf | unknown
r 0.1s|     1 |     0 |  1124 |     - |simplero|   0 | 764 |  77 |  77 |   0 |  0 |   0 |   0 |      --      | 1.264940e+01 |    Inf | unknown
 time | node  | left  |LP iter|LP it/n|mem/heur|mdpt |vars |cons |rows |cuts |sepa|confs|strbr|  dualbound   | primalbound  |  gap   | compl. 
r 0.1s|     1 |     0 |  1144 |     - |simplero|   0 | 764 |  77 |  77 |   0 |  0 |   0 |   0 |      --      | 1.250499e+01 |    Inf | unknown
r 0.1s|     1 |     0 |  1159 |     - |simplero|   0 | 764 |  77 |  77 |   0 |  0 |   0 |   0 |      --      | 1.246789e+01 |    Inf | unknown
r 0.1s|     1 |     0 |  1164 |     - |simplero|   0 | 764 |  77 |  77 |   0 |  0 |   0 |   0 |      --      | 1.246413e+01 |    Inf | unknown
r 0.1s|     1 |     0 |  1213 |     - |simplero|   0 | 775 |  77 |  77 |   0 |  0 |   0 |   0 |      --      | 1.155008e+01 |    Inf | unknown
r 0.1s|     1 |     0 |  1228 |     - |simplero|   0 | 775 |  77 |  77 |   0 |  0 |   0 |   0 |      --      | 1.144548e+01 |    Inf | unknown
r 0.1s|     1 |     0 |  1232 |     - |simplero|   0 | 775 |  77 |  77 |   0 |  0 |   0 |   0 |      --      | 1.142636e+01 |    Inf | unknown
r 0.1s|     1 |     0 |  1234 |     - |simplero|   0 | 775 |  77 |  77 |   0 |  0 |   0 |   0 |      --      | 1.142608e+01 |    Inf | unknown
r 0.1s|     1 |     0 |  1262 |     - |simplero|   0 | 786 |  77 |  77 |   0 |  0 |   0 |   0 |      --      | 1.119150e+01 |    Inf | unknown
r 0.1s|     1 |     0 |  1264 |     - |simplero|   0 | 786 |  77 |  77 |   0 |  0 |   0 |   0 |      --      | 1.119124e+01 |    Inf | unknown
r 0.1s|     1 |     0 |  1293 |     - |simplero|   0 | 797 |  77 |  77 |   0 |  0 |   0 |   0 |      --      | 1.066708e+01 |    Inf | unknown
r 0.1s|     1 |     0 |  1295 |     - |simplero|   0 | 797 |  77 |  77 |   0 |  0 |   0 |   0 |      --      | 1.066459e+01 |    Inf | unknown
r 0.1s|     1 |     0 |  1324 |     - |simplero|   0 | 808 |  77 |  77 |   0 |  0 |   0 |   0 |      --      | 1.025656e+01 |    Inf | unknown
r 0.1s|     1 |     0 |  1330 |     - |simplero|   0 | 808 |  77 |  77 |   0 |  0 |   0 |   0 |      --      | 1.025316e+01 |    Inf | unknown
r 0.1s|     1 |     0 |  1332 |     - |simplero|   0 | 808 |  77 |  77 |   0 |  0 |   0 |   0 |      --      | 1.025189e+01 |    Inf | unknown
r 0.1s|     1 |     0 |  1363 |     - |simplero|   0 | 819 |  77 |  77 |   0 |  0 |   0 |   0 |      --      | 9.955006e+00 |    Inf | unknown
 time | node  | left  |LP iter|LP it/n|mem/heur|mdpt |vars |cons |rows |cuts |sepa|confs|strbr|  dualbound   | primalbound  |  gap   | compl. 
r 0.1s|     1 |     0 |  1400 |     - |simplero|   0 | 829 |  77 |  77 |   0 |  0 |   0 |   0 |      --      | 9.785298e+00 |    Inf | unknown
r 0.1s|     1 |     0 |  1401 |     - |simplero|   0 | 829 |  77 |  77 |   0 |  0 |   0 |   0 |      --      | 9.784956e+00 |    Inf | unknown
r 0.1s|     1 |     0 |  1423 |     - |simplero|   0 | 839 |  77 |  77 |   0 |  0 |   0 |   0 |      --      | 9.641162e+00 |    Inf | unknown
r 0.1s|     1 |     0 |  1432 |     - |simplero|   0 | 839 |  77 |  77 |   0 |  0 |   0 |   0 |      --      | 9.618490e+00 |    Inf | unknown
  0.1s|     1 |     0 |  1450 |     - |  4113k |   0 | 849 |  77 |  77 |   0 |  0 |   0 |   0 |      --      | 9.618490e+00 |    Inf | unknown
r 0.1s|     1 |     0 |  1450 |     - |simplero|   0 | 849 |  77 |  77 |   0 |  0 |   0 |   0 |      --      | 9.509700e+00 |    Inf | unknown
r 0.1s|     1 |     0 |  1459 |     - |simplero|   0 | 849 |  77 |  77 |   0 |  0 |   0 |   0 |      --      | 9.497751e+00 |    Inf | unknown
r 0.1s|     1 |     0 |  1486 |     - |simplero|   0 | 859 |  77 |  77 |   0 |  0 |   0 |   0 |      --      | 9.350552e+00 |    Inf | unknown
r 0.1s|     1 |     0 |  1489 |     - |simplero|   0 | 859 |  77 |  77 |   0 |  0 |   0 |   0 |      --      | 9.343635e+00 |    Inf | unknown
r 0.1s|     1 |     0 |  1514 |     - |simplero|   0 | 868 |  77 |  77 |   0 |  0 |   0 |   0 |      --      | 9.269993e+00 |    Inf | unknown
r 0.1s|     1 |     0 |  1531 |     - |simplero|   0 | 868 |  77 |  77 |   0 |  0 |   0 |   0 |      --      | 9.244594e+00 |    Inf | unknown
r 0.1s|     1 |     0 |  1570 |     - |simplero|   0 | 878 |  77 |  77 |   0 |  0 |   0 |   0 |      --      | 8.999553e+00 |    Inf | unknown
r 0.1s|     1 |     0 |  1571 |     - |simplero|   0 | 878 |  77 |  77 |   0 |  0 |   0 |   0 |      --      | 8.998344e+00 |    Inf | unknown
r 0.1s|     1 |     0 |  1593 |     - |simplero|   0 | 887 |  77 |  77 |   0 |  0 |   0 |   0 |      --      | 8.915614e+00 |    Inf | unknown
r 0.1s|     1 |     0 |  1596 |     - |simplero|   0 | 887 |  77 |  77 |   0 |  0 |   0 |   0 |      --      | 8.911482e+00 |    Inf | unknown
 time | node  | left  |LP iter|LP it/n|mem/heur|mdpt |vars |cons |rows |cuts |sepa|confs|strbr|  dualbound   | primalbound  |  gap   | compl. 
r 0.1s|     1 |     0 |  1617 |     - |simplero|   0 | 893 |  77 |  77 |   0 |  0 |   0 |   0 |      --      | 8.867291e+00 |    Inf | unknown
r 0.1s|     1 |     0 |  1622 |     - |simplero|   0 | 893 |  77 |  77 |   0 |  0 |   0 |   0 |      --      | 8.860254e+00 |    Inf | unknown
r 0.1s|     1 |     0 |  1626 |     - |simplero|   0 | 893 |  77 |  77 |   0 |  0 |   0 |   0 |      --      | 8.859816e+00 |    Inf | unknown
r 0.1s|     1 |     0 |  1650 |     - |simplero|   0 | 899 |  77 |  77 |   0 |  0 |   0 |   0 |      --      | 8.805732e+00 |    Inf | unknown
r 0.1s|     1 |     0 |  1651 |     - |simplero|   0 | 899 |  77 |  77 |   0 |  0 |   0 |   0 |      --      | 8.805519e+00 |    Inf | unknown
r 0.1s|     1 |     0 |  1659 |     - |simplero|   0 | 904 |  77 |  77 |   0 |  0 |   0 |   0 |      --      | 8.801879e+00 |    Inf | unknown
r 0.1s|     1 |     0 |  1660 |     - |simplero|   0 | 904 |  77 |  77 |   0 |  0 |   0 |   0 |      --      | 8.801151e+00 |    Inf | unknown
r 0.1s|     1 |     0 |  1664 |     - |simplero|   0 | 906 |  77 |  77 |   0 |  0 |   0 |   0 |      --      | 8.797357e+00 |    Inf | unknown
r 0.1s|     1 |     0 |  1667 |     - |simplero|   0 | 906 |  77 |  77 |   0 |  0 |   0 |   0 |      --      | 8.794872e+00 |    Inf | unknown
r 0.1s|     1 |     0 |  1671 |     - |simplero|   0 | 909 |  77 |  77 |   0 |  0 |   0 |   0 |      --      | 8.794258e+00 |    Inf | unknown
r 0.1s|     1 |     0 |  1675 |     - |simplero|   0 | 909 |  77 |  77 |   0 |  0 |   0 |   0 |      --      | 8.793683e+00 |    Inf | unknown
r 0.1s|     1 |     0 |  1684 |     - |simplero|   0 | 910 |  77 |  77 |   0 |  0 |   0 |   0 |      --      | 8.791946e+00 |    Inf | unknown
r 0.1s|     1 |     0 |  1688 |     - |simplero|   0 | 911 |  77 |  77 |   0 |  0 |   0 |   0 |      --      | 8.789116e+00 |    Inf | unknown
r 0.1s|     1 |     0 |  1690 |     - |simplero|   0 | 911 |  77 |  77 |   0 |  0 |   0 |   0 |      --      | 8.789063e+00 |    Inf | unknown
r 0.1s|     1 |     0 |  1695 |     - |simplero|   0 | 913 |  77 |  77 |   0 |  0 |   0 |   0 |      --      | 8.786207e+00 |    Inf | unknown
 time | node  | left  |LP iter|LP it/n|mem/heur|mdpt |vars |cons |rows |cuts |sepa|confs|strbr|  dualbound   | primalbound  |  gap   | compl. 
r 0.1s|     1 |     0 |  1700 |     - |simplero|   0 | 915 |  77 |  77 |   0 |  0 |   0 |   0 |      --      | 8.783673e+00 |    Inf | unknown
r 0.1s|     1 |     0 |  1702 |     - |simplero|   0 | 916 |  77 |  77 |   0 |  0 |   0 |   0 |      --      | 8.783172e+00 |    Inf | unknown
  0.1s|     1 |     0 |  1703 |     - |  4489k |   0 | 916 |  77 |  77 |   0 |  0 |   0 |   0 | 8.783172e+00 | 8.783172e+00 |   0.00%| unknown
  0.1s|     1 |     0 |  1703 |     - |  4489k |   0 | 916 |  77 |  77 |   0 |  0 |   0 |   0 | 8.783172e+00 | 8.783172e+00 |   0.00%| unknown

SCIP Status        : problem is solved [optimal solution found]
Solving Time (sec) : 0.11
Solving Nodes      : 1
Primal Bound       : +8.78317152103560e+00 (60 solutions)
Dual Bound         : +8.78317152103560e+00
Gap                : 0.00 %

written transformed problem to file <results_rootrelaxation/bin012_070_043.srr.lp>
written transformed problem to file <results_rootrelaxation/bin012_070_043.srr.cip>

written solution information to file <results_rootrelaxation/bin012_070_043.srr.sol>



